SECTION Graph 
Nodes 29
Edges 28
E 10 18 1803221
E 11 21 247545
E 21 22 2127209
E 17 21 5868
E 9 23 1026143
E 9 18 1608785
E 1 22 1948582
E 15 23 2311861
E 20 24 2267600
E 20 22 646821
E 2 25 531098
E 2 23 1143786
E 16 25 954604
E 16 24 1363044
E 7 25 359467
E 8 26 1922816
E 8 24 1423525
E 12 26 3292659
E 13 27 993458
E 13 26 456165
E 6 28 1260213
E 27 29 1137402
E 5 28 3142441
E 5 27 1052432
E 19 29 1411339
E 3 28 821114
E 4 14 497406
E 4 29 257637
END 

SECTION Terminals 
Terminals 20
TP 1 11
TP 2 12
TP 3 13
TP 4 14
TP 5 15
TP 6 16
TP 7 17
TP 8 18
TP 9 19
TP 10 20
END 
